
;this file is automatically generated: Mon Oct 26 19:31:23 CST 2020

;declarations generated

(declare-fun oclExcludes ( Int Int) Bool)
(declare-fun Cardinality ( Int) Int)
(declare-fun type_4de1118c_989b_4ec0_bcf6_1d8849fa12f9_Class2 ( Int) Bool)
(declare-fun type_4de1118c_989b_4ec0_bcf6_1d8849fa12f9_Class20 ( Int) Bool)
(declare-fun oclSelect ( Int Bool) Int)
(declare-fun type_4de1118c_989b_4ec0_bcf6_1d8849fa12f9_Class21 ( Int) Bool)
(declare-fun type_4de1118c_989b_4ec0_bcf6_1d8849fa12f9_Class40 ( Int) Bool)
(declare-fun obj_27c6bce4_0986_4051_b0b2_c4dd0e28a8a3 ( Int) Int)
(declare-fun Enum0 ( Int) Int)
(declare-fun Enum1 ( Int) Int)
(declare-fun Enum2 ( Int) Int)
(declare-fun container_ ( Int) Int)
(declare-fun oclIncludes ( Int Int) Bool)
(declare-fun ObjAt ( Int Int) Int)

;formula(s) generated
(assert (forall ((p Int)) (=> ( type_4de1118c_989b_4ec0_bcf6_1d8849fa12f9_Class40 p )  (and (>= ( Enum0 ( obj_27c6bce4_0986_4051_b0b2_c4dd0e28a8a3 p )  )  0) (<= ( Enum0 ( obj_27c6bce4_0986_4051_b0b2_c4dd0e28a8a3 p )  )  3)))))
(assert (! (forall ((v Int)) (=> (and (and (and ( type_4de1118c_989b_4ec0_bcf6_1d8849fa12f9_Class40 v )  ( type_4de1118c_989b_4ec0_bcf6_1d8849fa12f9_Class21 v ) ) ( type_4de1118c_989b_4ec0_bcf6_1d8849fa12f9_Class2 v ) ) ( type_4de1118c_989b_4ec0_bcf6_1d8849fa12f9_Class20 v ) ) (not (= ( Enum0 ( obj_27c6bce4_0986_4051_b0b2_c4dd0e28a8a3 v )  )  2) ))):named l0))
(assert (! (forall ((v Int)) (=> (and (and (and ( type_4de1118c_989b_4ec0_bcf6_1d8849fa12f9_Class40 v )  ( type_4de1118c_989b_4ec0_bcf6_1d8849fa12f9_Class21 v ) ) ( type_4de1118c_989b_4ec0_bcf6_1d8849fa12f9_Class2 v ) ) ( type_4de1118c_989b_4ec0_bcf6_1d8849fa12f9_Class20 v ) ) (= ( Enum0 ( obj_27c6bce4_0986_4051_b0b2_c4dd0e28a8a3 v )  )  2))):named l1))
(assert (exists ((o Int)) (and (and (and ( type_4de1118c_989b_4ec0_bcf6_1d8849fa12f9_Class40 ( obj_27c6bce4_0986_4051_b0b2_c4dd0e28a8a3 o )  )  ( type_4de1118c_989b_4ec0_bcf6_1d8849fa12f9_Class21 ( obj_27c6bce4_0986_4051_b0b2_c4dd0e28a8a3 o )  ) ) ( type_4de1118c_989b_4ec0_bcf6_1d8849fa12f9_Class2 ( obj_27c6bce4_0986_4051_b0b2_c4dd0e28a8a3 o )  ) ) ( type_4de1118c_989b_4ec0_bcf6_1d8849fa12f9_Class20 ( obj_27c6bce4_0986_4051_b0b2_c4dd0e28a8a3 o )  ) )))

 ;end of formula 